(set-logic QF_LRA)
(declare-fun X0 () Real )
(declare-fun Y0 () Real )
(declare-fun X1 () Real )
(declare-fun Y1 () Real )
(declare-fun X2 () Real )
(declare-fun Y2 () Real )
(declare-fun X3 () Real )
(declare-fun Y3 () Real )
(declare-fun X4 () Real )
(declare-fun Y4 () Real )
(declare-fun X5 () Real )
(declare-fun Y5 () Real )
(declare-fun X6 () Real )
(declare-fun Y6 () Real )
(declare-fun X7 () Real )
(declare-fun Y7 () Real )
(declare-fun X8 () Real )
(declare-fun Y8 () Real )
(declare-fun X9 () Real )
(declare-fun Y9 () Real )
(declare-fun X10 () Real )
(declare-fun Y10 () Real )
(declare-fun X11 () Real )
(declare-fun Y11 () Real )
(declare-fun X12 () Real )
(declare-fun Y12 () Real )
(declare-fun X13 () Real )
(declare-fun Y13 () Real )
(declare-fun X14 () Real )
(declare-fun Y14 () Real )
(declare-fun X15 () Real )
(declare-fun Y15 () Real )
(declare-fun X16 () Real )
(declare-fun Y16 () Real )
(declare-fun X17 () Real )
(declare-fun Y17 () Real )
(declare-fun Z () Real )
(assert ( and  
( or ( <= ( + X0 26 ) X1 )  ( <= ( + X1 48 ) X0 )  ( <= ( + Y0 82 ) Y1 )  ( <= ( + Y1 87 ) Y0 )  )
( or ( <= ( + X0 26 ) X2 )  ( <= ( + X2 77 ) X0 )  ( <= ( + Y0 82 ) Y2 )  ( <= ( + Y2 81 ) Y0 )  )
( or ( <= ( + X0 26 ) X3 )  ( <= ( + X3 29 ) X0 )  ( <= ( + Y0 82 ) Y3 )  ( <= ( + Y3 33 ) Y0 )  )
( or ( <= ( + X0 26 ) X4 )  ( <= ( + X4 75 ) X0 )  ( <= ( + Y0 82 ) Y4 )  ( <= ( + Y4 69 ) Y0 )  )
( or ( <= ( + X0 26 ) X5 )  ( <= ( + X5 22 ) X0 )  ( <= ( + Y0 82 ) Y5 )  ( <= ( + Y5 16 ) Y0 )  )
( or ( <= ( + X0 26 ) X6 )  ( <= ( + X6 86 ) X0 )  ( <= ( + Y0 82 ) Y6 )  ( <= ( + Y6 41 ) Y0 )  )
( or ( <= ( + X0 26 ) X7 )  ( <= ( + X7 1 ) X0 )  ( <= ( + Y0 82 ) Y7 )  ( <= ( + Y7 65 ) Y0 )  )
( or ( <= ( + X0 26 ) X8 )  ( <= ( + X8 100 ) X0 )  ( <= ( + Y0 82 ) Y8 )  ( <= ( + Y8 21 ) Y0 )  )
( or ( <= ( + X0 26 ) X9 )  ( <= ( + X9 40 ) X0 )  ( <= ( + Y0 82 ) Y9 )  ( <= ( + Y9 26 ) Y0 )  )
( or ( <= ( + X0 26 ) X10 )  ( <= ( + X10 89 ) X0 )  ( <= ( + Y0 82 ) Y10 )  ( <= ( + Y10 46 ) Y0 )  )
( or ( <= ( + X0 26 ) X11 )  ( <= ( + X11 69 ) X0 )  ( <= ( + Y0 82 ) Y11 )  ( <= ( + Y11 74 ) Y0 )  )
( or ( <= ( + X0 26 ) X12 )  ( <= ( + X12 37 ) X0 )  ( <= ( + Y0 82 ) Y12 )  ( <= ( + Y12 5 ) Y0 )  )
( or ( <= ( + X0 26 ) X13 )  ( <= ( + X13 84 ) X0 )  ( <= ( + Y0 82 ) Y13 )  ( <= ( + Y13 23 ) Y0 )  )
( or ( <= ( + X0 26 ) X14 )  ( <= ( + X14 74 ) X0 )  ( <= ( + Y0 82 ) Y14 )  ( <= ( + Y14 73 ) Y0 )  )
( or ( <= ( + X0 26 ) X15 )  ( <= ( + X15 98 ) X0 )  ( <= ( + Y0 82 ) Y15 )  ( <= ( + Y15 33 ) Y0 )  )
( or ( <= ( + X0 26 ) X16 )  ( <= ( + X16 46 ) X0 )  ( <= ( + Y0 82 ) Y16 )  ( <= ( + Y16 51 ) Y0 )  )
( or ( <= ( + X0 26 ) X17 )  ( <= ( + X17 76 ) X0 )  ( <= ( + Y0 82 ) Y17 )  ( <= ( + Y17 99 ) Y0 )  )
( or ( <= ( + X1 48 ) X2 )  ( <= ( + X2 77 ) X1 )  ( <= ( + Y1 87 ) Y2 )  ( <= ( + Y2 81 ) Y1 )  )
( or ( <= ( + X1 48 ) X3 )  ( <= ( + X3 29 ) X1 )  ( <= ( + Y1 87 ) Y3 )  ( <= ( + Y3 33 ) Y1 )  )
( or ( <= ( + X1 48 ) X4 )  ( <= ( + X4 75 ) X1 )  ( <= ( + Y1 87 ) Y4 )  ( <= ( + Y4 69 ) Y1 )  )
( or ( <= ( + X1 48 ) X5 )  ( <= ( + X5 22 ) X1 )  ( <= ( + Y1 87 ) Y5 )  ( <= ( + Y5 16 ) Y1 )  )
( or ( <= ( + X1 48 ) X6 )  ( <= ( + X6 86 ) X1 )  ( <= ( + Y1 87 ) Y6 )  ( <= ( + Y6 41 ) Y1 )  )
( or ( <= ( + X1 48 ) X7 )  ( <= ( + X7 1 ) X1 )  ( <= ( + Y1 87 ) Y7 )  ( <= ( + Y7 65 ) Y1 )  )
( or ( <= ( + X1 48 ) X8 )  ( <= ( + X8 100 ) X1 )  ( <= ( + Y1 87 ) Y8 )  ( <= ( + Y8 21 ) Y1 )  )
( or ( <= ( + X1 48 ) X9 )  ( <= ( + X9 40 ) X1 )  ( <= ( + Y1 87 ) Y9 )  ( <= ( + Y9 26 ) Y1 )  )
( or ( <= ( + X1 48 ) X10 )  ( <= ( + X10 89 ) X1 )  ( <= ( + Y1 87 ) Y10 )  ( <= ( + Y10 46 ) Y1 )  )
( or ( <= ( + X1 48 ) X11 )  ( <= ( + X11 69 ) X1 )  ( <= ( + Y1 87 ) Y11 )  ( <= ( + Y11 74 ) Y1 )  )
( or ( <= ( + X1 48 ) X12 )  ( <= ( + X12 37 ) X1 )  ( <= ( + Y1 87 ) Y12 )  ( <= ( + Y12 5 ) Y1 )  )
( or ( <= ( + X1 48 ) X13 )  ( <= ( + X13 84 ) X1 )  ( <= ( + Y1 87 ) Y13 )  ( <= ( + Y13 23 ) Y1 )  )
( or ( <= ( + X1 48 ) X14 )  ( <= ( + X14 74 ) X1 )  ( <= ( + Y1 87 ) Y14 )  ( <= ( + Y14 73 ) Y1 )  )
( or ( <= ( + X1 48 ) X15 )  ( <= ( + X15 98 ) X1 )  ( <= ( + Y1 87 ) Y15 )  ( <= ( + Y15 33 ) Y1 )  )
( or ( <= ( + X1 48 ) X16 )  ( <= ( + X16 46 ) X1 )  ( <= ( + Y1 87 ) Y16 )  ( <= ( + Y16 51 ) Y1 )  )
( or ( <= ( + X1 48 ) X17 )  ( <= ( + X17 76 ) X1 )  ( <= ( + Y1 87 ) Y17 )  ( <= ( + Y17 99 ) Y1 )  )
( or ( <= ( + X2 77 ) X3 )  ( <= ( + X3 29 ) X2 )  ( <= ( + Y2 81 ) Y3 )  ( <= ( + Y3 33 ) Y2 )  )
( or ( <= ( + X2 77 ) X4 )  ( <= ( + X4 75 ) X2 )  ( <= ( + Y2 81 ) Y4 )  ( <= ( + Y4 69 ) Y2 )  )
( or ( <= ( + X2 77 ) X5 )  ( <= ( + X5 22 ) X2 )  ( <= ( + Y2 81 ) Y5 )  ( <= ( + Y5 16 ) Y2 )  )
( or ( <= ( + X2 77 ) X6 )  ( <= ( + X6 86 ) X2 )  ( <= ( + Y2 81 ) Y6 )  ( <= ( + Y6 41 ) Y2 )  )
( or ( <= ( + X2 77 ) X7 )  ( <= ( + X7 1 ) X2 )  ( <= ( + Y2 81 ) Y7 )  ( <= ( + Y7 65 ) Y2 )  )
( or ( <= ( + X2 77 ) X8 )  ( <= ( + X8 100 ) X2 )  ( <= ( + Y2 81 ) Y8 )  ( <= ( + Y8 21 ) Y2 )  )
( or ( <= ( + X2 77 ) X9 )  ( <= ( + X9 40 ) X2 )  ( <= ( + Y2 81 ) Y9 )  ( <= ( + Y9 26 ) Y2 )  )
( or ( <= ( + X2 77 ) X10 )  ( <= ( + X10 89 ) X2 )  ( <= ( + Y2 81 ) Y10 )  ( <= ( + Y10 46 ) Y2 )  )
( or ( <= ( + X2 77 ) X11 )  ( <= ( + X11 69 ) X2 )  ( <= ( + Y2 81 ) Y11 )  ( <= ( + Y11 74 ) Y2 )  )
( or ( <= ( + X2 77 ) X12 )  ( <= ( + X12 37 ) X2 )  ( <= ( + Y2 81 ) Y12 )  ( <= ( + Y12 5 ) Y2 )  )
( or ( <= ( + X2 77 ) X13 )  ( <= ( + X13 84 ) X2 )  ( <= ( + Y2 81 ) Y13 )  ( <= ( + Y13 23 ) Y2 )  )
( or ( <= ( + X2 77 ) X14 )  ( <= ( + X14 74 ) X2 )  ( <= ( + Y2 81 ) Y14 )  ( <= ( + Y14 73 ) Y2 )  )
( or ( <= ( + X2 77 ) X15 )  ( <= ( + X15 98 ) X2 )  ( <= ( + Y2 81 ) Y15 )  ( <= ( + Y15 33 ) Y2 )  )
( or ( <= ( + X2 77 ) X16 )  ( <= ( + X16 46 ) X2 )  ( <= ( + Y2 81 ) Y16 )  ( <= ( + Y16 51 ) Y2 )  )
( or ( <= ( + X2 77 ) X17 )  ( <= ( + X17 76 ) X2 )  ( <= ( + Y2 81 ) Y17 )  ( <= ( + Y17 99 ) Y2 )  )
( or ( <= ( + X3 29 ) X4 )  ( <= ( + X4 75 ) X3 )  ( <= ( + Y3 33 ) Y4 )  ( <= ( + Y4 69 ) Y3 )  )
( or ( <= ( + X3 29 ) X5 )  ( <= ( + X5 22 ) X3 )  ( <= ( + Y3 33 ) Y5 )  ( <= ( + Y5 16 ) Y3 )  )
( or ( <= ( + X3 29 ) X6 )  ( <= ( + X6 86 ) X3 )  ( <= ( + Y3 33 ) Y6 )  ( <= ( + Y6 41 ) Y3 )  )
( or ( <= ( + X3 29 ) X7 )  ( <= ( + X7 1 ) X3 )  ( <= ( + Y3 33 ) Y7 )  ( <= ( + Y7 65 ) Y3 )  )
( or ( <= ( + X3 29 ) X8 )  ( <= ( + X8 100 ) X3 )  ( <= ( + Y3 33 ) Y8 )  ( <= ( + Y8 21 ) Y3 )  )
( or ( <= ( + X3 29 ) X9 )  ( <= ( + X9 40 ) X3 )  ( <= ( + Y3 33 ) Y9 )  ( <= ( + Y9 26 ) Y3 )  )
( or ( <= ( + X3 29 ) X10 )  ( <= ( + X10 89 ) X3 )  ( <= ( + Y3 33 ) Y10 )  ( <= ( + Y10 46 ) Y3 )  )
( or ( <= ( + X3 29 ) X11 )  ( <= ( + X11 69 ) X3 )  ( <= ( + Y3 33 ) Y11 )  ( <= ( + Y11 74 ) Y3 )  )
( or ( <= ( + X3 29 ) X12 )  ( <= ( + X12 37 ) X3 )  ( <= ( + Y3 33 ) Y12 )  ( <= ( + Y12 5 ) Y3 )  )
( or ( <= ( + X3 29 ) X13 )  ( <= ( + X13 84 ) X3 )  ( <= ( + Y3 33 ) Y13 )  ( <= ( + Y13 23 ) Y3 )  )
( or ( <= ( + X3 29 ) X14 )  ( <= ( + X14 74 ) X3 )  ( <= ( + Y3 33 ) Y14 )  ( <= ( + Y14 73 ) Y3 )  )
( or ( <= ( + X3 29 ) X15 )  ( <= ( + X15 98 ) X3 )  ( <= ( + Y3 33 ) Y15 )  ( <= ( + Y15 33 ) Y3 )  )
( or ( <= ( + X3 29 ) X16 )  ( <= ( + X16 46 ) X3 )  ( <= ( + Y3 33 ) Y16 )  ( <= ( + Y16 51 ) Y3 )  )
( or ( <= ( + X3 29 ) X17 )  ( <= ( + X17 76 ) X3 )  ( <= ( + Y3 33 ) Y17 )  ( <= ( + Y17 99 ) Y3 )  )
( or ( <= ( + X4 75 ) X5 )  ( <= ( + X5 22 ) X4 )  ( <= ( + Y4 69 ) Y5 )  ( <= ( + Y5 16 ) Y4 )  )
( or ( <= ( + X4 75 ) X6 )  ( <= ( + X6 86 ) X4 )  ( <= ( + Y4 69 ) Y6 )  ( <= ( + Y6 41 ) Y4 )  )
( or ( <= ( + X4 75 ) X7 )  ( <= ( + X7 1 ) X4 )  ( <= ( + Y4 69 ) Y7 )  ( <= ( + Y7 65 ) Y4 )  )
( or ( <= ( + X4 75 ) X8 )  ( <= ( + X8 100 ) X4 )  ( <= ( + Y4 69 ) Y8 )  ( <= ( + Y8 21 ) Y4 )  )
( or ( <= ( + X4 75 ) X9 )  ( <= ( + X9 40 ) X4 )  ( <= ( + Y4 69 ) Y9 )  ( <= ( + Y9 26 ) Y4 )  )
( or ( <= ( + X4 75 ) X10 )  ( <= ( + X10 89 ) X4 )  ( <= ( + Y4 69 ) Y10 )  ( <= ( + Y10 46 ) Y4 )  )
( or ( <= ( + X4 75 ) X11 )  ( <= ( + X11 69 ) X4 )  ( <= ( + Y4 69 ) Y11 )  ( <= ( + Y11 74 ) Y4 )  )
( or ( <= ( + X4 75 ) X12 )  ( <= ( + X12 37 ) X4 )  ( <= ( + Y4 69 ) Y12 )  ( <= ( + Y12 5 ) Y4 )  )
( or ( <= ( + X4 75 ) X13 )  ( <= ( + X13 84 ) X4 )  ( <= ( + Y4 69 ) Y13 )  ( <= ( + Y13 23 ) Y4 )  )
( or ( <= ( + X4 75 ) X14 )  ( <= ( + X14 74 ) X4 )  ( <= ( + Y4 69 ) Y14 )  ( <= ( + Y14 73 ) Y4 )  )
( or ( <= ( + X4 75 ) X15 )  ( <= ( + X15 98 ) X4 )  ( <= ( + Y4 69 ) Y15 )  ( <= ( + Y15 33 ) Y4 )  )
( or ( <= ( + X4 75 ) X16 )  ( <= ( + X16 46 ) X4 )  ( <= ( + Y4 69 ) Y16 )  ( <= ( + Y16 51 ) Y4 )  )
( or ( <= ( + X4 75 ) X17 )  ( <= ( + X17 76 ) X4 )  ( <= ( + Y4 69 ) Y17 )  ( <= ( + Y17 99 ) Y4 )  )
( or ( <= ( + X5 22 ) X6 )  ( <= ( + X6 86 ) X5 )  ( <= ( + Y5 16 ) Y6 )  ( <= ( + Y6 41 ) Y5 )  )
( or ( <= ( + X5 22 ) X7 )  ( <= ( + X7 1 ) X5 )  ( <= ( + Y5 16 ) Y7 )  ( <= ( + Y7 65 ) Y5 )  )
( or ( <= ( + X5 22 ) X8 )  ( <= ( + X8 100 ) X5 )  ( <= ( + Y5 16 ) Y8 )  ( <= ( + Y8 21 ) Y5 )  )
( or ( <= ( + X5 22 ) X9 )  ( <= ( + X9 40 ) X5 )  ( <= ( + Y5 16 ) Y9 )  ( <= ( + Y9 26 ) Y5 )  )
( or ( <= ( + X5 22 ) X10 )  ( <= ( + X10 89 ) X5 )  ( <= ( + Y5 16 ) Y10 )  ( <= ( + Y10 46 ) Y5 )  )
( or ( <= ( + X5 22 ) X11 )  ( <= ( + X11 69 ) X5 )  ( <= ( + Y5 16 ) Y11 )  ( <= ( + Y11 74 ) Y5 )  )
( or ( <= ( + X5 22 ) X12 )  ( <= ( + X12 37 ) X5 )  ( <= ( + Y5 16 ) Y12 )  ( <= ( + Y12 5 ) Y5 )  )
( or ( <= ( + X5 22 ) X13 )  ( <= ( + X13 84 ) X5 )  ( <= ( + Y5 16 ) Y13 )  ( <= ( + Y13 23 ) Y5 )  )
( or ( <= ( + X5 22 ) X14 )  ( <= ( + X14 74 ) X5 )  ( <= ( + Y5 16 ) Y14 )  ( <= ( + Y14 73 ) Y5 )  )
( or ( <= ( + X5 22 ) X15 )  ( <= ( + X15 98 ) X5 )  ( <= ( + Y5 16 ) Y15 )  ( <= ( + Y15 33 ) Y5 )  )
( or ( <= ( + X5 22 ) X16 )  ( <= ( + X16 46 ) X5 )  ( <= ( + Y5 16 ) Y16 )  ( <= ( + Y16 51 ) Y5 )  )
( or ( <= ( + X5 22 ) X17 )  ( <= ( + X17 76 ) X5 )  ( <= ( + Y5 16 ) Y17 )  ( <= ( + Y17 99 ) Y5 )  )
( or ( <= ( + X6 86 ) X7 )  ( <= ( + X7 1 ) X6 )  ( <= ( + Y6 41 ) Y7 )  ( <= ( + Y7 65 ) Y6 )  )
( or ( <= ( + X6 86 ) X8 )  ( <= ( + X8 100 ) X6 )  ( <= ( + Y6 41 ) Y8 )  ( <= ( + Y8 21 ) Y6 )  )
( or ( <= ( + X6 86 ) X9 )  ( <= ( + X9 40 ) X6 )  ( <= ( + Y6 41 ) Y9 )  ( <= ( + Y9 26 ) Y6 )  )
( or ( <= ( + X6 86 ) X10 )  ( <= ( + X10 89 ) X6 )  ( <= ( + Y6 41 ) Y10 )  ( <= ( + Y10 46 ) Y6 )  )
( or ( <= ( + X6 86 ) X11 )  ( <= ( + X11 69 ) X6 )  ( <= ( + Y6 41 ) Y11 )  ( <= ( + Y11 74 ) Y6 )  )
( or ( <= ( + X6 86 ) X12 )  ( <= ( + X12 37 ) X6 )  ( <= ( + Y6 41 ) Y12 )  ( <= ( + Y12 5 ) Y6 )  )
( or ( <= ( + X6 86 ) X13 )  ( <= ( + X13 84 ) X6 )  ( <= ( + Y6 41 ) Y13 )  ( <= ( + Y13 23 ) Y6 )  )
( or ( <= ( + X6 86 ) X14 )  ( <= ( + X14 74 ) X6 )  ( <= ( + Y6 41 ) Y14 )  ( <= ( + Y14 73 ) Y6 )  )
( or ( <= ( + X6 86 ) X15 )  ( <= ( + X15 98 ) X6 )  ( <= ( + Y6 41 ) Y15 )  ( <= ( + Y15 33 ) Y6 )  )
( or ( <= ( + X6 86 ) X16 )  ( <= ( + X16 46 ) X6 )  ( <= ( + Y6 41 ) Y16 )  ( <= ( + Y16 51 ) Y6 )  )
( or ( <= ( + X6 86 ) X17 )  ( <= ( + X17 76 ) X6 )  ( <= ( + Y6 41 ) Y17 )  ( <= ( + Y17 99 ) Y6 )  )
( or ( <= ( + X7 1 ) X8 )  ( <= ( + X8 100 ) X7 )  ( <= ( + Y7 65 ) Y8 )  ( <= ( + Y8 21 ) Y7 )  )
( or ( <= ( + X7 1 ) X9 )  ( <= ( + X9 40 ) X7 )  ( <= ( + Y7 65 ) Y9 )  ( <= ( + Y9 26 ) Y7 )  )
( or ( <= ( + X7 1 ) X10 )  ( <= ( + X10 89 ) X7 )  ( <= ( + Y7 65 ) Y10 )  ( <= ( + Y10 46 ) Y7 )  )
( or ( <= ( + X7 1 ) X11 )  ( <= ( + X11 69 ) X7 )  ( <= ( + Y7 65 ) Y11 )  ( <= ( + Y11 74 ) Y7 )  )
( or ( <= ( + X7 1 ) X12 )  ( <= ( + X12 37 ) X7 )  ( <= ( + Y7 65 ) Y12 )  ( <= ( + Y12 5 ) Y7 )  )
( or ( <= ( + X7 1 ) X13 )  ( <= ( + X13 84 ) X7 )  ( <= ( + Y7 65 ) Y13 )  ( <= ( + Y13 23 ) Y7 )  )
( or ( <= ( + X7 1 ) X14 )  ( <= ( + X14 74 ) X7 )  ( <= ( + Y7 65 ) Y14 )  ( <= ( + Y14 73 ) Y7 )  )
( or ( <= ( + X7 1 ) X15 )  ( <= ( + X15 98 ) X7 )  ( <= ( + Y7 65 ) Y15 )  ( <= ( + Y15 33 ) Y7 )  )
( or ( <= ( + X7 1 ) X16 )  ( <= ( + X16 46 ) X7 )  ( <= ( + Y7 65 ) Y16 )  ( <= ( + Y16 51 ) Y7 )  )
( or ( <= ( + X7 1 ) X17 )  ( <= ( + X17 76 ) X7 )  ( <= ( + Y7 65 ) Y17 )  ( <= ( + Y17 99 ) Y7 )  )
( or ( <= ( + X8 100 ) X9 )  ( <= ( + X9 40 ) X8 )  ( <= ( + Y8 21 ) Y9 )  ( <= ( + Y9 26 ) Y8 )  )
( or ( <= ( + X8 100 ) X10 )  ( <= ( + X10 89 ) X8 )  ( <= ( + Y8 21 ) Y10 )  ( <= ( + Y10 46 ) Y8 )  )
( or ( <= ( + X8 100 ) X11 )  ( <= ( + X11 69 ) X8 )  ( <= ( + Y8 21 ) Y11 )  ( <= ( + Y11 74 ) Y8 )  )
( or ( <= ( + X8 100 ) X12 )  ( <= ( + X12 37 ) X8 )  ( <= ( + Y8 21 ) Y12 )  ( <= ( + Y12 5 ) Y8 )  )
( or ( <= ( + X8 100 ) X13 )  ( <= ( + X13 84 ) X8 )  ( <= ( + Y8 21 ) Y13 )  ( <= ( + Y13 23 ) Y8 )  )
( or ( <= ( + X8 100 ) X14 )  ( <= ( + X14 74 ) X8 )  ( <= ( + Y8 21 ) Y14 )  ( <= ( + Y14 73 ) Y8 )  )
( or ( <= ( + X8 100 ) X15 )  ( <= ( + X15 98 ) X8 )  ( <= ( + Y8 21 ) Y15 )  ( <= ( + Y15 33 ) Y8 )  )
( or ( <= ( + X8 100 ) X16 )  ( <= ( + X16 46 ) X8 )  ( <= ( + Y8 21 ) Y16 )  ( <= ( + Y16 51 ) Y8 )  )
( or ( <= ( + X8 100 ) X17 )  ( <= ( + X17 76 ) X8 )  ( <= ( + Y8 21 ) Y17 )  ( <= ( + Y17 99 ) Y8 )  )
( or ( <= ( + X9 40 ) X10 )  ( <= ( + X10 89 ) X9 )  ( <= ( + Y9 26 ) Y10 )  ( <= ( + Y10 46 ) Y9 )  )
( or ( <= ( + X9 40 ) X11 )  ( <= ( + X11 69 ) X9 )  ( <= ( + Y9 26 ) Y11 )  ( <= ( + Y11 74 ) Y9 )  )
( or ( <= ( + X9 40 ) X12 )  ( <= ( + X12 37 ) X9 )  ( <= ( + Y9 26 ) Y12 )  ( <= ( + Y12 5 ) Y9 )  )
( or ( <= ( + X9 40 ) X13 )  ( <= ( + X13 84 ) X9 )  ( <= ( + Y9 26 ) Y13 )  ( <= ( + Y13 23 ) Y9 )  )
( or ( <= ( + X9 40 ) X14 )  ( <= ( + X14 74 ) X9 )  ( <= ( + Y9 26 ) Y14 )  ( <= ( + Y14 73 ) Y9 )  )
( or ( <= ( + X9 40 ) X15 )  ( <= ( + X15 98 ) X9 )  ( <= ( + Y9 26 ) Y15 )  ( <= ( + Y15 33 ) Y9 )  )
( or ( <= ( + X9 40 ) X16 )  ( <= ( + X16 46 ) X9 )  ( <= ( + Y9 26 ) Y16 )  ( <= ( + Y16 51 ) Y9 )  )
( or ( <= ( + X9 40 ) X17 )  ( <= ( + X17 76 ) X9 )  ( <= ( + Y9 26 ) Y17 )  ( <= ( + Y17 99 ) Y9 )  )
( or ( <= ( + X10 89 ) X11 )  ( <= ( + X11 69 ) X10 )  ( <= ( + Y10 46 ) Y11 )  ( <= ( + Y11 74 ) Y10 )  )
( or ( <= ( + X10 89 ) X12 )  ( <= ( + X12 37 ) X10 )  ( <= ( + Y10 46 ) Y12 )  ( <= ( + Y12 5 ) Y10 )  )
( or ( <= ( + X10 89 ) X13 )  ( <= ( + X13 84 ) X10 )  ( <= ( + Y10 46 ) Y13 )  ( <= ( + Y13 23 ) Y10 )  )
( or ( <= ( + X10 89 ) X14 )  ( <= ( + X14 74 ) X10 )  ( <= ( + Y10 46 ) Y14 )  ( <= ( + Y14 73 ) Y10 )  )
( or ( <= ( + X10 89 ) X15 )  ( <= ( + X15 98 ) X10 )  ( <= ( + Y10 46 ) Y15 )  ( <= ( + Y15 33 ) Y10 )  )
( or ( <= ( + X10 89 ) X16 )  ( <= ( + X16 46 ) X10 )  ( <= ( + Y10 46 ) Y16 )  ( <= ( + Y16 51 ) Y10 )  )
( or ( <= ( + X10 89 ) X17 )  ( <= ( + X17 76 ) X10 )  ( <= ( + Y10 46 ) Y17 )  ( <= ( + Y17 99 ) Y10 )  )
( or ( <= ( + X11 69 ) X12 )  ( <= ( + X12 37 ) X11 )  ( <= ( + Y11 74 ) Y12 )  ( <= ( + Y12 5 ) Y11 )  )
( or ( <= ( + X11 69 ) X13 )  ( <= ( + X13 84 ) X11 )  ( <= ( + Y11 74 ) Y13 )  ( <= ( + Y13 23 ) Y11 )  )
( or ( <= ( + X11 69 ) X14 )  ( <= ( + X14 74 ) X11 )  ( <= ( + Y11 74 ) Y14 )  ( <= ( + Y14 73 ) Y11 )  )
( or ( <= ( + X11 69 ) X15 )  ( <= ( + X15 98 ) X11 )  ( <= ( + Y11 74 ) Y15 )  ( <= ( + Y15 33 ) Y11 )  )
( or ( <= ( + X11 69 ) X16 )  ( <= ( + X16 46 ) X11 )  ( <= ( + Y11 74 ) Y16 )  ( <= ( + Y16 51 ) Y11 )  )
( or ( <= ( + X11 69 ) X17 )  ( <= ( + X17 76 ) X11 )  ( <= ( + Y11 74 ) Y17 )  ( <= ( + Y17 99 ) Y11 )  )
( or ( <= ( + X12 37 ) X13 )  ( <= ( + X13 84 ) X12 )  ( <= ( + Y12 5 ) Y13 )  ( <= ( + Y13 23 ) Y12 )  )
( or ( <= ( + X12 37 ) X14 )  ( <= ( + X14 74 ) X12 )  ( <= ( + Y12 5 ) Y14 )  ( <= ( + Y14 73 ) Y12 )  )
( or ( <= ( + X12 37 ) X15 )  ( <= ( + X15 98 ) X12 )  ( <= ( + Y12 5 ) Y15 )  ( <= ( + Y15 33 ) Y12 )  )
( or ( <= ( + X12 37 ) X16 )  ( <= ( + X16 46 ) X12 )  ( <= ( + Y12 5 ) Y16 )  ( <= ( + Y16 51 ) Y12 )  )
( or ( <= ( + X12 37 ) X17 )  ( <= ( + X17 76 ) X12 )  ( <= ( + Y12 5 ) Y17 )  ( <= ( + Y17 99 ) Y12 )  )
( or ( <= ( + X13 84 ) X14 )  ( <= ( + X14 74 ) X13 )  ( <= ( + Y13 23 ) Y14 )  ( <= ( + Y14 73 ) Y13 )  )
( or ( <= ( + X13 84 ) X15 )  ( <= ( + X15 98 ) X13 )  ( <= ( + Y13 23 ) Y15 )  ( <= ( + Y15 33 ) Y13 )  )
( or ( <= ( + X13 84 ) X16 )  ( <= ( + X16 46 ) X13 )  ( <= ( + Y13 23 ) Y16 )  ( <= ( + Y16 51 ) Y13 )  )
( or ( <= ( + X13 84 ) X17 )  ( <= ( + X17 76 ) X13 )  ( <= ( + Y13 23 ) Y17 )  ( <= ( + Y17 99 ) Y13 )  )
( or ( <= ( + X14 74 ) X15 )  ( <= ( + X15 98 ) X14 )  ( <= ( + Y14 73 ) Y15 )  ( <= ( + Y15 33 ) Y14 )  )
( or ( <= ( + X14 74 ) X16 )  ( <= ( + X16 46 ) X14 )  ( <= ( + Y14 73 ) Y16 )  ( <= ( + Y16 51 ) Y14 )  )
( or ( <= ( + X14 74 ) X17 )  ( <= ( + X17 76 ) X14 )  ( <= ( + Y14 73 ) Y17 )  ( <= ( + Y17 99 ) Y14 )  )
( or ( <= ( + X15 98 ) X16 )  ( <= ( + X16 46 ) X15 )  ( <= ( + Y15 33 ) Y16 )  ( <= ( + Y16 51 ) Y15 )  )
( or ( <= ( + X15 98 ) X17 )  ( <= ( + X17 76 ) X15 )  ( <= ( + Y15 33 ) Y17 )  ( <= ( + Y17 99 ) Y15 )  )
( or ( <= ( + X16 46 ) X17 )  ( <= ( + X17 76 ) X16 )  ( <= ( + Y16 51 ) Y17 )  ( <= ( + Y17 99 ) Y16 )  )
( >= X0 0)
( <= ( + X0 26) Z)
( >= Y0 0)
( <= ( + Y0 82 ) 212)
( >= X1 0)
( <= ( + X1 48) Z)
( >= Y1 0)
( <= ( + Y1 87 ) 212)
( >= X2 0)
( <= ( + X2 77) Z)
( >= Y2 0)
( <= ( + Y2 81 ) 212)
( >= X3 0)
( <= ( + X3 29) Z)
( >= Y3 0)
( <= ( + Y3 33 ) 212)
( >= X4 0)
( <= ( + X4 75) Z)
( >= Y4 0)
( <= ( + Y4 69 ) 212)
( >= X5 0)
( <= ( + X5 22) Z)
( >= Y5 0)
( <= ( + Y5 16 ) 212)
( >= X6 0)
( <= ( + X6 86) Z)
( >= Y6 0)
( <= ( + Y6 41 ) 212)
( >= X7 0)
( <= ( + X7 1) Z)
( >= Y7 0)
( <= ( + Y7 65 ) 212)
( >= X8 0)
( <= ( + X8 100) Z)
( >= Y8 0)
( <= ( + Y8 21 ) 212)
( >= X9 0)
( <= ( + X9 40) Z)
( >= Y9 0)
( <= ( + Y9 26 ) 212)
( >= X10 0)
( <= ( + X10 89) Z)
( >= Y10 0)
( <= ( + Y10 46 ) 212)
( >= X11 0)
( <= ( + X11 69) Z)
( >= Y11 0)
( <= ( + Y11 74 ) 212)
( >= X12 0)
( <= ( + X12 37) Z)
( >= Y12 0)
( <= ( + Y12 5 ) 212)
( >= X13 0)
( <= ( + X13 84) Z)
( >= Y13 0)
( <= ( + Y13 23 ) 212)
( >= X14 0)
( <= ( + X14 74) Z)
( >= Y14 0)
( <= ( + Y14 73 ) 212)
( >= X15 0)
( <= ( + X15 98) Z)
( >= Y15 0)
( <= ( + Y15 33 ) 212)
( >= X16 0)
( <= ( + X16 46) Z)
( >= Y16 0)
( <= ( + Y16 51 ) 212)
( >= X17 0)
( <= ( + X17 76) Z)
( >= Y17 0)
( <= ( + Y17 99 ) 212)
) )
(minimize Z)
(check-sat)
